p cnf 25 100
-1 2 11 0
-1 -3 -23 0
1 -10 4 0
1 5 22 0
-1 -6 -7 0
8 1 -14 0
1 -19 -9 0
1 -18 12 0
-1 -20 13 0
16 -1 -15 0
1 -21 17 0
24 -1 25 0
-2 3 -22 0
2 -4 12 0
2 5 -14 0
2 13 6 0
-2 -23 7 0
8 2 15 0
-9 -2 -10 0
16 25 2 0
-17 2 20 0
19 -2 18 0
24 -2 21 0
-3 4 20 0
3 -5 6 0
3 -12 7 0
8 -16 -3 0
9 -3 -15 0
10 -3 21 0
-11 -3 13 0
-19 -3 14 0
-24 -17 -3 0
-25 18 3 0
-11 -4 -5 0
4 -6 -22 0
-18 -4 -7 0
-8 -4 13 0
9 -4 25 0
17 -4 14 0
4 -21 -15 0
16 19 4 0
24 -4 23 0
-15 5 7 0
-8 25 5 0
9 -13 -5 0
10 19 -5 0
-12 -5 -23 0
-16 -17 5 0
18 21 -5 0
24 -20 -5 0
-8 -6 -23 0
9 -21 -6 0
-24 -10 6 0
11 6 15 0
-16 12 6 0
25 -6 -14 0
-17 -19 -6 0
18 -20 6 0
-8 -19 -7 0
9 17 -7 0
-10 13 -7 0
-11 -14 7 0
16 20 -7 0
25 -21 -7 0
-24 -22 7 0
8 -9 20 0
-8 -10 -11 0
-8 -17 -12 0
-8 -24 -18 0
-8 -21 22 0
9 -18 -11 0
-24 9 12 0
-9 14 -22 0
16 -9 -23 0
-10 -12 -22 0
16 10 14 0
17 10 15 0
10 -18 -23 0
25 10 20 0
-11 -12 -21 0
-16 24 -11 0
17 -11 23 0
19 -25 11 0
11 20 22 0
19 -12 13 0
-12 -20 14 0
25 12 15 0
-24 -13 14 0
-13 -22 -15 0
-16 21 13 0
-17 18 -13 0
-25 -13 -23 0
18 -14 -15 0
21 14 -23 0
-24 -19 15 0
-20 23 15 0
16 18 -22 0
-17 22 -25 0
19 -20 -21 0
19 -22 -23 0
